Br C H N Pb
1.0
 12.837079072048   0.000019661749  -0.044498103512
 -0.000015323732  12.322287065435   0.000125917532
  0.015482203987   0.000272162041  30.845471903267
Br C H N Pb
 16  32  96   8   4
Selective dynamics
Direct
  0.448086807352   0.460543556688   0.116686911168  T T T
  0.326325544919   0.691093983432   0.020448948557  T T T
  0.774844774038   0.539987423287   0.116850723002  T T T
  0.643084369547   0.309064115782   0.020830054000  T T T
  0.218728876775   0.203588880289   0.119474995341  T T T
  0.350431962167   0.645477852940   0.215500223363  T T T
  0.535425177130   0.796614040242   0.119920402094  T T T
  0.667245904856   0.354629312162   0.215885742787  T T T
  0.776659604256   0.204790143237   0.573650060386  T T T
  0.223246919151   0.541212089566   0.569532262423  T T T
  0.670564713170   0.689901608578   0.473754963493  T T T
  0.459931118427   0.794935319118   0.573197940457  T T T
  0.646139678921   0.646297006042   0.669807528934  T T T
  0.539946404984   0.458540677089   0.569972344628  T T T
  0.329303510353   0.353510918094   0.669436471628  T T T
  0.353729205249   0.309919596221   0.473382036735  T T T
  0.677574097948   0.693456943199   0.220061873892  T T T
  0.669281501808   0.681578259694   0.268967141921  T T T
  0.745047245789   0.757287516201   0.292556465407  T T T
  0.735670052172   0.748793277754   0.341751125777  T T T
  0.322428737067   0.357109582578   0.923150569309  T T T
  0.330591001351   0.345201419026   0.874243030270  T T T
  0.254772877990   0.420892073642   0.850673875720  T T T
  0.264081872023   0.412400227869   0.801476319238  T T T
  0.639120959782   0.643011975002   0.923625023492  T T T
  0.647365362942   0.654760856774   0.874713045072  T T T
  0.571500681355   0.579069213553   0.851167717161  T T T
  0.580803632635   0.587466139654   0.801966162217  T T T
  0.360856513747   0.306655888767   0.219540673345  T T T
  0.352581608976   0.318393077146   0.268449582836  T T T
  0.428432912386   0.242712504052   0.292007514092  T T T
  0.419057851604   0.251078755180   0.341207148251  T T T
  0.678657789450   0.357475980035   0.467595753745  T T T
  0.666426057096   0.343677460896   0.418898292570  T T T
  0.737978672645   0.419994644627   0.393664019857  T T T
  0.723198133710   0.408619169308   0.344763018656  T T T
  0.321231207705   0.693892321244   0.675603248114  T T T
  0.333491603933   0.680088890657   0.724298940636  T T T
  0.261913676538   0.756384633784   0.749536363277  T T T
  0.276741829259   0.745053380309   0.798439503687  T T T
  0.637818382801   0.305865522648   0.676105636319  T T T
  0.650169293207   0.319715042504   0.724796361457  T T T
  0.578611830110   0.243496187655   0.750076161012  T T T
  0.593556697728   0.254870101330   0.798969067816  T T T
  0.362060603732   0.642291876100   0.467058329525  T T T
  0.349692855834   0.656127918850   0.418368797582  T T T
  0.421274840324   0.579946375507   0.393085096192  T T T
  0.406298451927   0.591305545865   0.344193228467  T T T
  0.624158702050   0.534724609131   0.204909860102  T T T
  0.611902152837   0.624938091300   0.163980274923  T T T
  0.526847678045   0.629865592891   0.205603278803  T T T
  0.757361075690   0.675553936253   0.208602424491  T T T
  0.656668839398   0.776269378483   0.209259020852  T T T
  0.685532369195   0.596111551805   0.278221295381  T T T
  0.588185667522   0.699086283616   0.279320411296  T T T
  0.825796163388   0.737455629226   0.282487802068  T T T
  0.730378601301   0.841998558583   0.281890040932  T T T
  0.791231335167   0.803428317093   0.358450754683  T T T
  0.751891716853   0.665281297625   0.353084854145  T T T
  0.656307768650   0.770022282146   0.352934171894  T T T
  0.375814638126   0.198356574915   0.938300614431  T T T
  0.388160949851   0.288574632938   0.979216663450  T T T
  0.473159636381   0.293460467777   0.937547909674  T T T
  0.242663985783   0.339277078491   0.934646551552  T T T
  0.343388796011   0.439921288587   0.933942182790  T T T
  0.314326685077   0.259732032330   0.865002056262  T T T
  0.411668427685   0.362711965590   0.863857462393  T T T
  0.174031236068   0.401049447918   0.860761134201  T T T
  0.269437238557   0.505594944855   0.861348830529  T T T
  0.247544811020   0.328966101565   0.790121036261  T T T
  0.208712883581   0.467286531919   0.784805121688  T T T
  0.343500984355   0.433445802653   0.790297462413  T T T
  0.789877001436   0.706632009070   0.938006089519  T T T
  0.692562549753   0.801764118304   0.938716123028  T T T
  0.704924484307   0.711600917725   0.979666818084  T T T
  0.559360018258   0.660959807758   0.935091817145  T T T
  0.660022389658   0.560215401370   0.934454503021  T T T
  0.728429634180   0.637152023585   0.864350008987  T T T
  0.631179844104   0.740226758481   0.865435800314  T T T
  0.490785089365   0.598979617978   0.861257612661  T T T
  0.586147951506   0.494366333131   0.861855595769  T T T
  0.525298670452   0.532692018452   0.785305232173  T T T
  0.660189073412   0.566337512525   0.790777690597  T T T
  0.564436698135   0.670928033185   0.790604103664  T T T
  0.210114317311   0.370279090639   0.205149833207  T T T
  0.295080192864   0.375253009321   0.163496676465  T T T
  0.307426887629   0.465421697637   0.204444705778  T T T
  0.339975256913   0.223861673315   0.208704191474  T T T
  0.440631507478   0.324611060053   0.208082720747  T T T
  0.271503874189   0.300767454929   0.278799294876  T T T
  0.368727997920   0.403861865137   0.277729986344  T T T
  0.413833558078   0.158010858855   0.281311989407  T T T
  0.509161100647   0.262659143592   0.281937539727  T T T
  0.339644176650   0.229961924248   0.352369847922  T T T
  0.474524713318   0.196283930036   0.357879362974  T T T
  0.435405340189   0.334533653711   0.352578542500  T T T
  0.629309794834   0.197712170436   0.483677363047  T T T
  0.619402054169   0.288002807742   0.524647817320  T T T
  0.530630426711   0.291367075420   0.484026118887  T T T
  0.759767075527   0.341850666478   0.478175430234  T T T
  0.656336032576   0.440072914065   0.478203527060  T T T
  0.683943654198   0.258349100720   0.409861355198  T T T
  0.584055322145   0.358808499712   0.409597462074  T T T
  0.820191995297   0.402577041219   0.402525383657  T T T
  0.722677773058   0.504884239753   0.403844850673  T T T
  0.736299249791   0.323926737159   0.334157625263  T T T
  0.778188034456   0.460647303606   0.326643325798  T T T
  0.643205389401   0.431482671900   0.334712139185  T T T
  0.370551181494   0.534141588188   0.659513269467  T T T
  0.380427374039   0.624438294744   0.618539777829  T T T
  0.469255588060   0.627763723182   0.659142959627  T T T
  0.240097148554   0.678194096482   0.665047657975  T T T
  0.343470802593   0.776483726686   0.664987285845  T T T
  0.415866763301   0.695248490057   0.733593995171  T T T
  0.316032712206   0.594745620126   0.733326133298  T T T
  0.179700702926   0.738934099629   0.740675085277  T T T
  0.277170527172   0.841277256389   0.739343814318  T T T
  0.221720094878   0.797023121329   0.816569370398  T T T
  0.356723854605   0.767999365660   0.808477344382  T T T
  0.263776580613   0.660348471375   0.809060604829  T T T
  0.785857107622   0.371826280586   0.659585799771  T T T
  0.696935667606   0.375259832461   0.619012526108  T T T
  0.687269213071   0.465571496607   0.659981119788  T T T
  0.556684887707   0.321556376173   0.665559680322  T T T
  0.660038487602   0.223244611878   0.665502470672  T T T
  0.632753465725   0.405066858524   0.733827272227  T T T
  0.732549486800   0.304512121554   0.734068226923  T T T
  0.496388071988   0.261009751270   0.741258810822  T T T
  0.593782526293   0.158581461954   0.739894297771  T T T
  0.538536752210   0.202941540565   0.817117931586  T T T
  0.580621349238   0.339589480316   0.809578384960  T T T
  0.673545162050   0.231872203660   0.808978833618  T T T
  0.214010250578   0.708231027427   0.483583141879  T T T
  0.312589728420   0.801989542655   0.483183701952  T T T
  0.302942769610   0.711678526040   0.524150423951  T T T
  0.339868265493   0.559672013203   0.477670624917  T T T
  0.443200179803   0.658003788944   0.477600747416  T T T
  0.267311643611   0.640891802828   0.409102796624  T T T
  0.367065368492   0.741488741000   0.409332834462  T T T
  0.503496947447   0.597507301659   0.401893047176  T T T
  0.406151304255   0.495023464778   0.403273117649  T T T
  0.326314496662   0.568269970836   0.334191244004  T T T
  0.461336128523   0.539411763570   0.326039378619  T T T
  0.419169617539   0.676033977696   0.333579342113  T T T
  0.605805790084   0.616283703989   0.197495922354  T T T
  0.394221720215   0.279918866171   0.945695141311  T T T
  0.710946918096   0.720216439637   0.946140342231  T T T
  0.289053537161   0.383865961133   0.197012690743  T T T
  0.610370825068   0.279094240626   0.491229937346  T T T
  0.389483043991   0.615494845498   0.651960713016  T T T
  0.706097981188   0.384175678025   0.652427839064  T T T
  0.293781273149   0.720594179486   0.490740136370  T T T
  0.655162234481   0.331844938146   0.118358604220  T T T
  0.338396812165   0.668273530743   0.117973381266  T T T
  0.341537088194   0.331660027558   0.571411350370  T T T
  0.658349828286   0.668069016085   0.571778381302  T T T
