Br C H N Pb
1.0
  9.713334678518   0.002979846166  -0.010002521683
 -0.001029997521   9.948720059306  -0.441176398663
 -0.038233836769  -2.819489085321  48.317784868678
Br C H N Pb
 28  36 120  12   8
Selective dynamics
Direct
  0.143542545008   0.655566514123   0.117440064803  T T T
  0.082322024379   0.241153026008   0.103758592161  T T T
  0.574713246399   0.865053299843   0.548850425618  T T T
  0.505314145689   0.455688518893   0.537349752102  T T T
  0.575250955150   0.715106658626   0.119434372790  T T T
  0.512645318081   0.305166328809   0.111954660721  T T T
  0.147399009178   0.933627575236   0.552606591768  T T T
  0.079342569738   0.522249827591   0.544441304735  T T T
  0.590587104786   0.787753013127   0.241124658597  T T T
  0.481963376932   0.379666766677   0.232314115897  T T T
  0.169993374781   1.003824073856   0.674595126654  T T T
  0.056039795915   0.595661201517   0.665131425670  T T T
  0.159963860456   0.683785702442   0.254083926942  T T T
  0.060734338482   0.277076220225   0.246156703578  T T T
  0.589177428915   0.900470935716   0.687983376883  T T T
  0.491249543644   0.489310443047   0.678816844488  T T T
  0.795874918647   0.484438504558   0.181342341493  T T T
  0.283684137795   0.082980108947   0.172031151653  T T T
  0.369128553841   0.700619694553   0.614130837529  T T T
  0.713116893009   0.296706288791   0.605333516086  T T T
  0.702137412629   0.567703515861   0.305900710834  T T T
  0.373070010188   0.157427443991   0.296795834195  T T T
  0.278145318078   0.781513382381   0.738804006704  T T T
  0.805678317332   0.373440633875   0.729940225438  T T T
  0.726883544469   0.465356870580   0.054063033595  T T T
  0.355782527317   0.048743903217   0.044764965569  T T T
  0.293676126287   0.679570162762   0.486966875214  T T T
  0.779645908400   0.269403637806   0.477932569167  T T T
  0.281647161086   0.571156326419   0.318498748747  T T T
  0.336400259234   0.546009462321   0.346930428425  T T T
  0.242380095547   0.612275046092   0.369699767455  T T T
  0.295929213192   0.596596960320   0.398810076891  T T T
  0.799743951035   0.160667314845   0.309660956833  T T T
  0.746576525369   0.134905783055   0.338143576112  T T T
  0.837739413551   0.205738230718   0.361007928958  T T T
  0.783902054327   0.188360351878   0.390015789841  T T T
  0.711239731848   0.787861886473   0.751506404426  T T T
  0.766182928972   0.762382266426   0.779892178189  T T T
  0.673146407576   0.828687218970   0.802815235141  T T T
  0.727559177436   0.811194711414   0.831785272410  T T T
  0.373498723086   0.377984757694   0.742811270150  T T T
  0.319046320597   0.354597406951   0.771327048506  T T T
  0.411855343116   0.423553042580   0.794105923350  T T T
  0.358071029823   0.407847627809   0.823181427302  T T T
  0.276205890548   0.896388182310   0.914447709968  T T T
  0.350924899345   0.862973985917   0.887123845807  T T T
  0.250412417689   0.812224196504   0.864111833095  T T T
  0.320540022564   0.781392764242   0.836039647769  T T T
  0.786981865274   0.475401493196   0.905405444831  T T T
  0.732160085900   0.460969975628   0.875800874550  T T T
  0.836201881818   0.392845534213   0.855286462349  T T T
  0.776856430049   0.366304248328   0.826011497594  T T T
  0.711601245819   0.675044390643   0.481981267939  T T T
  0.775051741190   0.652949328383   0.453213396899  T T T
  0.672979549235   0.591212437277   0.431519210639  T T T
  0.739393477871   0.561238250762   0.403021063308  T T T
  0.356129540794   0.259647951986   0.472859260350  T T T
  0.301575012850   0.245171529359   0.443235592818  T T T
  0.406430489254   0.178250358764   0.422745413445  T T T
  0.347468289921   0.151202046652   0.393450764995  T T T
  0.362340725280   0.487302842965   0.167742214988  T T T
  0.720954639919   0.068821850327   0.159344434794  T T T
  0.790202543746   0.700033368224   0.601094957028  T T T
  0.296008376484   0.284672193281   0.592236683116  T T T
  0.328920183033   0.523713998243   0.276285535981  T T T
  0.360980327034   0.393797798613   0.295626830222  T T T
  0.469841325328   0.527161007003   0.297293026959  T T T
  0.173871417155   0.536507218910   0.315465505210  T T T
  0.284773811097   0.679921578400   0.315635500591  T T T
  0.343546839031   0.435746246495   0.348647656431  T T T
  0.442585757834   0.586761221122   0.349605171778  T T T
  0.230548624927   0.721076505285   0.366913070942  T T T
  0.138135926669   0.567498012973   0.366973455723  T T T
  0.224211510860   0.638209349957   0.415196614798  T T T
  0.312936198704   0.489045515088   0.401729032548  T T T
  0.395378534877   0.649186132826   0.402586767198  T T T
  0.609655428546   0.120199242344   0.288624447237  T T T
  0.716255002784  -0.014747419762   0.286741034057  T T T
  0.749818327668   0.115207482564   0.267468662634  T T T
  0.797713649820   0.269681284623   0.307000660983  T T T
  0.906899657382   0.124851925477   0.306272942613  T T T
  0.638926229234   0.172009840315   0.340619245005  T T T
  0.743954043856   0.024680836275   0.340103798042  T T T
  0.944028005979   0.165465261185   0.358528811299  T T T
  0.844401429692   0.314816846857   0.358088151460  T T T
  0.680652080140   0.234360119579   0.393116434089  T T T
  0.851807688795   0.235865172798   0.406594934054  T T T
  0.774351444905   0.080154444744   0.393174120853  T T T
  0.758584030593   0.741126663389   0.709312600497  T T T
  0.899363027926   0.743313582340   0.730261983312  T T T
  0.790190071606   0.610578568781   0.728506212878  T T T
  0.714606591071   0.896621973050   0.748641503003  T T T
  0.603507488492   0.753236677707   0.748420014923  T T T
  0.773079958723   0.652084992161   0.781581079608  T T T
  0.872554431908   0.802722922759   0.782460858315  T T T
  0.568487050261   0.784804438443   0.800161730041  T T T
  0.662192816996   0.937775966650   0.800224352715  T T T
  0.656986077666   0.852777403558   0.848379384342  T T T
  0.743524441163   0.703216658503   0.834447337005  T T T
  0.827710575161   0.862507698143   0.835513995172  T T T
  0.325044020795   0.329805357364   0.700662441596  T T T
  0.184432208750   0.333831488590   0.721705083765  T T T
  0.293203485910   0.200392712450   0.720079012850  T T T
  0.370948993848   0.486553876873   0.739748345719  T T T
  0.480976284367   0.342606392941   0.739767599392  T T T
  0.212479818983   0.394678771671   0.773688402006  T T T
  0.313170734015   0.244638266201   0.773464677060  T T T
  0.421271022262   0.532375703720   0.791134568369  T T T
  0.517068636447   0.380648246557   0.791594576721  T T T
  0.256741517298   0.457441871555   0.826582526911  T T T
  0.344691560334   0.300085226405   0.826359555497  T T T
  0.428144664107   0.452480226776   0.839650856654  T T T
  0.411725824152   1.047167963602   0.932141092608  T T T
  0.315909056244   0.976752461404   0.955399869849  T T T
  0.452386486263   0.889960339662   0.940503287685  T T T
  0.228595135586   0.805992663397   0.921904009090  T T T
  0.193754605862   0.971645311115   0.912725950084  T T T
  0.430566107748   0.785233950594   0.889589030281  T T T
  0.405875463015   0.953896755777   0.881386688498  T T T
  0.168818783517   0.889116630118   0.862646367670  T T T
  0.198039095122   0.720492691659   0.870078770270  T T T
  0.247333091866   0.740455631711   0.819780633252  T T T
  0.367273460281   0.873278630705   0.828979645018  T T T
  0.403709761758   0.706330578967   0.837238789384  T T T
  0.700025339250   0.664030956498   0.920869636014  T T T
  0.715861566025   0.554665370483   0.944856870259  T T T
  0.588346514064   0.530467863177   0.920866866923  T T T
  0.889731137733   0.523592037317   0.907115140397  T T T
  0.794470656436   0.376005879427   0.913626229247  T T T
  0.704995759410   0.562180439166   0.869611539116  T T T
  0.635364286601   0.401320698684   0.875098866638  T T T
  0.929364488442   0.457202227653   0.855159962557  T T T
  0.869906278844   0.296263038081   0.862748548435  T T T
  0.686183977938   0.298955037361   0.825983042409  T T T
  0.742788546441   0.461083750078   0.817914300163  T T T
  0.852815688726   0.317450623018   0.811207452990  T T T
  0.811788719955   0.854696168083   0.498022660827  T T T
  0.775173743752   0.751023707104   0.522197223240  T T T
  0.909487203674   0.713559339858   0.499922850268  T T T
  0.614551005803   0.733400280462   0.482152442864  T T T
  0.689194949418   0.578140503541   0.490336979748  T T T
  0.813574959336   0.750561884897   0.447023201025  T T T
  0.866143168126   0.586092151550   0.453972721764  T T T
  0.584872407279   0.661240372495   0.430320063628  T T T
  0.630328794539   0.497024256948   0.438513537172  T T T
  0.665872921874   0.515114526910   0.387337761013  T T T
  0.826809106199   0.490629400319   0.404054468037  T T T
  0.779996138198   0.654395980430   0.395318183875  T T T
  0.267142882385   0.447284006259   0.488317747732  T T T
  0.157049721636   0.313088821930   0.488389216750  T T T
  0.284702561696   0.338271122114   0.512319340884  T T T
  0.364875702149   0.160245961813   0.481046385374  T T T
  0.458373986642   0.308843800012   0.474638572721  T T T
  0.205223064466   0.184762208896   0.442431511235  T T T
  0.273621230749   0.346298867198   0.437095822474  T T T
  0.441479154358   0.082092415042   0.430209839239  T T T
  0.498780367925   0.243732105561   0.422668570909  T T T
  0.312338442984   0.245669872991   0.385373230735  T T T
  0.257557671758   0.082879431419   0.393371247934  T T T
  0.424032126958   0.103303099438   0.378662011340  T T T
  0.172672511824   0.532419509783   0.187963642829  T T T
  0.283895396600   0.664070594414   0.190624883697  T T T
  0.310079317782   0.532275614708   0.209701288363  T T T
  0.470567637349   0.518524152674   0.170729785246  T T T
  0.323796741575   0.514553339926   0.147679998507  T T T
  0.353171649021   0.377665944165   0.168766552074  T T T
  0.762425463925   0.115026130537   0.201737320671  T T T
  0.790103032589   0.247531491704   0.182904952860  T T T
  0.905043922903   0.119375007323   0.181293755022  T T T
  0.761343696967   0.098930419695   0.139678914511  T T T
  0.611257050294   0.095669278181   0.161691172053  T T T
  0.734302744218  -0.040695650218   0.160010340823  T T T
  0.714927883049   0.879056249878   0.623699638922  T T T
  0.602705852569   0.748474881868   0.621769938001  T T T
  0.741795211970   0.748872650420   0.643153493689  T T T
  0.898999721803   0.729910433762   0.603664258366  T T T
  0.750408872473   0.726284152568   0.581054216477  T T T
  0.780012441964   0.590738404423   0.602459468894  T T T
  0.479731559460   0.335032465002   0.614468652594  T T T
  0.365172633845   0.463256784337   0.615806665180  T T T
  0.336852091074   0.332195621489   0.634728607666  T T T
  0.338254802296   0.312955182054   0.572569508769  T T T
  0.186629393200   0.313064068625   0.594162359737  T T T
  0.307188168770   0.175269964483   0.593301397961  T T T
  0.364778759901   0.499733455718   0.295570315578  T T T
  0.714167089776   0.091303646955   0.286768178726  T T T
  0.794258589070   0.716476817051   0.728559878401  T T T
  0.289420260805   0.306280980401   0.719987516477  T T T
  0.371162839601   0.954791422899   0.936787817120  T T T
  0.691954117954   0.560803366255   0.924030199156  T T T
  0.808560423845   0.752091054523   0.501705039229  T T T
  0.260329879318   0.344050788945   0.491491611914  T T T
  0.277704154049   0.558301444574   0.190344137224  T T T
  0.799054521994   0.142028836841   0.182760576459  T T T
  0.707974695397   0.773505150629   0.623793603531  T T T
  0.373769347136   0.357931190624   0.615699049210  T T T
  0.758135690901   0.478894155915   0.114074597617  T T T
  0.326834697323   0.071442163538   0.105521669533  T T T
  0.328130718583   0.694772484297   0.547689026783  T T T
  0.751159982341   0.287347531370   0.538962211756  T T T
  0.748591213476   0.531265299589   0.244367257532  T T T
  0.324962706986   0.123327804136   0.235424019951  T T T
  0.324755797706   0.744661316292   0.677350683843  T T T
  0.757932102537   0.337669230889   0.668647462963  T T T
