Br C H N Pb
1.0
 16.777147628446   0.000000000000   0.000000000000
 -0.409669815440  21.874925744898   0.000000000000
 -0.208108994223   0.058556062025  55.640246581911
Br C H N Pb
 40  64 128  16  12
Selective dynamics
Direct
  0.743808861109   0.467337016126   0.595518825538  T T T
  0.510627658181   0.686832894228   0.485737594640  T T T
  0.744764328808   0.662078085877   0.115400794936  T T T
  0.540509924375   0.468596929156   0.007984433086  T T T
  0.747847366231   0.462887435727   0.485782556841  T T T
  0.540462031908   0.684326560401   0.595209645821  T T T
  0.291768291954   0.299971914678   0.008082819365  T T T
  0.499481784126   0.475952966105   0.115878447843  T T T
  0.373886305614   0.592435249666   0.534063709500  T T T
  0.417385175054   0.395125797621   0.542053282395  T T T
  0.685941155941   0.554555680442   0.059078584823  T T T
  0.622450050740   0.371573137472   0.062998562102  T T T
  0.657997281472   0.362455549157   0.540130357117  T T T
  0.609814830786   0.547100025869   0.539128664878  T T T
  0.375951353769   0.403681205358   0.064578311435  T T T
  0.444339616065   0.612782573351   0.064596725762  T T T
  0.735907703186   0.468322683355   0.704989431898  T T T
  0.508937506641   0.301458913489   0.704505202750  T T T
  0.361464585011   0.601108279526   0.642262431393  T T T
  0.403326166383   0.399371876054   0.648927897382  T T T
  0.643985329093   0.372411074781   0.651295216674  T T T
  0.605775811292   0.559464345490   0.651761553253  T T T
  0.731508823925   0.673585630754   0.223798665697  T T T
  0.492780578682   0.463629774920   0.224534195899  T T T
  0.665377474326   0.556154166518   0.171887631856  T T T
  0.611413096059   0.369355747965   0.165325688084  T T T
  0.369240934905   0.394559108812   0.172345596280  T T T
  0.413759793818   0.595221073905   0.178482082426  T T T
  0.266604459895   0.499690845612   0.813522172188  T T T
  0.513044629353   0.659972182450   0.812997977434  T T T
  0.346144810803   0.603818676960   0.754565444673  T T T
  0.393643411975   0.405315038049   0.761658833787  T T T
  0.637562151888   0.368041041105   0.764564611259  T T T
  0.596757495769   0.565817900924   0.755802175737  T T T
  0.743303023475   0.655637602288   0.333076784253  T T T
  0.494380398313   0.494933966110   0.333591614608  T T T
  0.652187491872   0.558734834888   0.275681798093  T T T
  0.602098483629   0.360668447537   0.283042101831  T T T
  0.361021961074   0.394462185394   0.284516223325  T T T
  0.400714966197   0.584307164918   0.276338956342  T T T
  0.263232829114   0.485725201240   0.963110991050  T T T
  0.489041075435   0.684215867922   0.332531768237  T T T
  0.742743424030   0.663972273168   0.485871061905  T T T
  0.521370602979   0.472372547996   0.810662198146  T T T
  0.726352168515   0.467133308500   0.331246952967  T T T
  0.510921229062   0.667674409374   0.963941926246  T T T
  0.760747845330   0.294969343702   0.811966146339  T T T
  0.491762832008   0.485962874291   0.485744391958  T T T
  0.249958173132   0.499677039839   0.937006168714  T T T
  0.509540409350   0.696190594891   0.358435080883  T T T
  0.759409639199   0.652033174033   0.459805569369  T T T
  0.501832527888   0.459160492907   0.836499618858  T T T
  0.746182686952   0.455285758612   0.357169661249  T T T
  0.497572308068   0.654613429544   0.937724271869  T T T
  0.742629296381   0.307471900161   0.837897857975  T T T
  0.509535561261   0.498143115917   0.459707076507  T T T
  0.288007025179   0.466247978242   0.919086442479  T T T
  0.474145371252   0.661741336150   0.376878926465  T T T
  0.723835258697   0.686942891478   0.441724020074  T T T
  0.538087983646   0.492759825343   0.855087013489  T T T
  0.713050688880   0.490406957661   0.375489330667  T T T
  0.537784456282   0.688650026328   0.920053266262  T T T
  0.777076339176   0.272835222359   0.856236850712  T T T
  0.472364449974   0.463600275340   0.441530254688  T T T
  0.276595080047   0.480742193566   0.894879681880  T T T
  0.492225734110   0.674632220311   0.400902652156  T T T
  0.737788584390   0.673935128945   0.417538177593  T T T
  0.521277765571   0.478649443577   0.879064676243  T T T
  0.730818728340   0.478106894000   0.399542557410  T T T
  0.526485331067   0.674852666279   0.895753280962  T T T
  0.761056768224   0.285745505388   0.880317803134  T T T
  0.487086365487   0.477081539836   0.417381147957  T T T
  0.227297740743   0.528712676357   0.888487697594  T T T
  0.545997156701   0.721729611034   0.406597102220  T T T
  0.787272035835   0.626002288187   0.411328960374  T T T
  0.468000685387   0.431080248985   0.884550277490  T T T
  0.782082731715   0.430873101420   0.405361889307  T T T
  0.475511388526   0.626776544568   0.889019471076  T T T
  0.710122919713   0.333034174517   0.886136182699  T T T
  0.539047341946   0.525039499799   0.411284881771  T T T
  0.188487051935   0.561829287737   0.906264466211  T T T
  0.582566608905   0.755666247854   0.388287016505  T T T
  0.823877974451   0.591609103078   0.429276748185  T T T
  0.430664562188   0.397965450585   0.866096230152  T T T
  0.816460789399   0.396330311913   0.387165989214  T T T
  0.434614764597   0.593076601006   0.906556789623  T T T
  0.674765319336   0.367236489779   0.867911839197  T T T
  0.577415654311   0.559027469931   0.429309307146  T T T
  0.199483940402   0.547276594924   0.930404477120  T T T
  0.564507111724   0.742931601569   0.364330000056  T T T
  0.810173084061   0.604601428229   0.453386284041  T T T
  0.447341225218   0.412013035888   0.842204445517  T T T
  0.798635940604   0.408477690625   0.363179599529  T T T
  0.445175370247   0.607136163174   0.930780353425  T T T
  0.690891689439   0.354603616436   0.843916624133  T T T
  0.562907500526   0.545534652933   0.453391644772  T T T
  0.489068238496   0.496719451366   0.598587806320  T T T
  0.298037423423   0.663384779271   0.585555175511  T T T
  0.737319802852   0.460978770141   0.120720980511  T T T
  0.491905067080   0.664472131417   0.126760903898  T T T
  0.477326361525   0.497318775467   0.706303373278  T T T
  0.277921047212   0.664424512526   0.695574566067  T T T
  0.733297057867   0.457304342037   0.228314307099  T T T
  0.488904011630   0.666830832507   0.233130726093  T T T
  0.203589399323   0.440398468297   0.991298785227  T T T
  0.540142022923   0.639337004498   0.302969506084  T T T
  0.797512774702   0.708593662007   0.515204491556  T T T
  0.470373767629   0.517690767091   0.781272477570  T T T
  0.779178603035   0.512541901245   0.301695029850  T T T
  0.453828009453   0.713804678794   0.992015566914  T T T
  0.706487625823   0.249769034623   0.782699730103  T T T
  0.543222295717   0.440691605717   0.515124553981  T T T
  0.209234946809   0.397661093342   0.966648287108  T T T
  0.533226146974   0.594888495624   0.327379442853  T T T
  0.793636677373   0.752690105809   0.490842396086  T T T
  0.475677098911   0.561386423661   0.805836727061  T T T
  0.776368407029   0.555975662116   0.326221231195  T T T
  0.464263968059   0.756775561301   0.967415458989  T T T
  0.708677838055   0.206786114451   0.807414312525  T T T
  0.537133595261   0.396678592652   0.490789374831  T T T
  0.142705299108   0.455175207439   0.968188907265  T T T
  0.604837410116   0.650311577203   0.325610851329  T T T
  0.861488868985   0.696234419185   0.492706806116  T T T
  0.404775360753   0.505277808504   0.803675482162  T T T
  0.844131464276   0.500023463579   0.324059921579  T T T
  0.392881782903   0.700622840720   0.968583387441  T T T
  0.641679729255   0.263568025332   0.804929724306  T T T
  0.608281275749   0.452627442541   0.492740825052  T T T
  0.260431471013   0.527232193096   0.974092430159  T T T
  0.493204227284   0.726172018788   0.321801969895  T T T
  0.745741223384   0.621813061579   0.496496013874  T T T
  0.517677893492   0.430779450394   0.799709412043  T T T
  0.728280087473   0.425109324679   0.320570979808  T T T
  0.504168434601   0.626030785330   0.974786064796  T T T
  0.759397843777   0.336863106664   0.801169599926  T T T
  0.496864369013   0.527904611712   0.496468094778  T T T
  0.320954906510   0.464377611714   0.966277274481  T T T
  0.428767678848   0.664571698706   0.330422209993  T T T
  0.683968229899   0.684006028447   0.488524189160  T T T
  0.581247796486   0.492704326783   0.808621951920  T T T
  0.667240133620   0.487058761562   0.329073327090  T T T
  0.570354669352   0.687635734380   0.967358213578  T T T
  0.819218656345   0.274109392749   0.809723543359  T T T
  0.431676799044   0.466403978890   0.488299431225  T T T
  0.327645357343   0.429339699882   0.924147911192  T T T
  0.431285092997   0.625320149407   0.372353371646  T T T
  0.684014761165   0.723816690560   0.446621413552  T T T
  0.580727931241   0.529384613132   0.850750635674  T T T
  0.672246969205   0.526915224567   0.370857288145  T T T
  0.579071701011   0.725378093104   0.925341824218  T T T
  0.817560339704   0.236171819668   0.851625543972  T T T
  0.430630074560   0.426704443205   0.446324622714  T T T
  0.306786401011   0.455154470592   0.880982222603  T T T
  0.463591106641   0.648347362211   0.415164982354  T T T
  0.709398711716   0.700586953265   0.403504634595  T T T
  0.550536009016   0.504216286659   0.893458178730  T T T
  0.703976533419   0.504769138589   0.413754363271  T T T
  0.558250011397   0.701010884523   0.882053811617  T T T
  0.788890839394   0.259304409412   0.894513424092  T T T
  0.457320241068   0.450759169443   0.403293210115  T T T
  0.219915409292   0.540498417980   0.869585811891  T T T
  0.558819059450   0.732155284890   0.425394406647  T T T
  0.796537593883   0.615213226572   0.392426875910  T T T
  0.456218863663   0.419599953866   0.903289871666  T T T
  0.794645178367   0.420741695375   0.424177238389  T T T
  0.468517027863   0.615361995215   0.870050871523  T T T
  0.698650124884   0.343479323846   0.904962096448  T T T
  0.548898120251   0.536152547813   0.392421430901  T T T
  0.150335239765   0.599589551516   0.901383888387  T T T
  0.624398818117   0.792678366968   0.392640622551  T T T
  0.862391319928   0.554046662308   0.424532265655  T T T
  0.389250025363   0.360609772582   0.870299362605  T T T
  0.856395675499   0.359306355322   0.391617001702  T T T
  0.394986318262   0.555335328053   0.901421276904  T T T
  0.635314890531   0.404420437361   0.872351226286  T T T
  0.617942835522   0.596622883420   0.424657736563  T T T
  0.170007946958   0.573775572388   0.944253863732  T T T
  0.592128403596   0.770115829702   0.350076836868  T T T
  0.837681955548   0.577077708923   0.467372492156  T T T
  0.419075645673   0.385542861287   0.827820855912  T T T
  0.824526460795   0.380970770750   0.348977682280  T T T
  0.413945004883   0.580211656699   0.944422905065  T T T
  0.664232234144   0.382018354806   0.829739678582  T T T
  0.591826733428   0.572819113217   0.467431488916  T T T
  0.508892095178   0.542762945534   0.593341314493  T T T
  0.490946348139   0.492080212932   0.618135395738  T T T
  0.428614093289   0.487062753539   0.591990726350  T T T
  0.529425391741   0.406561816194   0.592443755316  T T T
  0.542934526440   0.454006217625   0.569301282798  T T T
  0.603416565328   0.459491642987   0.593003742214  T T T
  0.284771261243   0.614867775951   0.588675465577  T T T
  0.362114261327   0.672146772805   0.587478453747  T T T
  0.277498467959   0.677169768192   0.567730383895  T T T
  0.265991050003   0.746797049301   0.601889804381  T T T
  0.193727485048   0.693425578943   0.602703634410  T T T
  0.272584036134   0.687827416947   0.621116464547  T T T
  0.675099640168   0.473319932221   0.117835058171  T T T
  0.750272037409   0.458858656417   0.139962275593  T T T
  0.749517152631   0.417017116956   0.112258886384  T T T
  0.850108979690   0.499184350939   0.111633463709  T T T
  0.777888898776   0.512518587997   0.091280990106  T T T
  0.779472411867   0.552129804580   0.116581442271  T T T
  0.428832955697   0.672885087813   0.123218407140  T T T
  0.507011388683   0.676306244302   0.145300069169  T T T
  0.505152269163   0.616559692537   0.123155859735  T T T
  0.601826318609   0.696551178380   0.112887280524  T T T
  0.528159615535   0.694615013035   0.092626977214  T T T
  0.531615911593   0.750134478657   0.113284831899  T T T
  0.496071487285   0.544865868064   0.703231180146  T T T
  0.476786759743   0.487287865619   0.725557480592  T T T
  0.418088175822   0.488267039400   0.698675817357  T T T
  0.521372222427   0.410304877408   0.697324901017  T T T
  0.535937913081   0.463273729209   0.676002115884  T T T
  0.593555984135   0.464229259170   0.700316953640  T T T
  0.262234553415   0.616687370772   0.699524437458  T T T
  0.341616605515   0.672600611215   0.698709555766  T T T
  0.262369193684   0.675720481883   0.677035369810  T T T
  0.244481287328   0.750918642463   0.708817242869  T T T
  0.170506941773   0.698556314658   0.709535264100  T T T
  0.244067829252   0.696026811019   0.729787875963  T T T
  0.669992439666   0.468260122598   0.227298626731  T T T
  0.750287795181   0.447134521279   0.246872115663  T T T
  0.746385841013   0.418505068557   0.216692626201  T T T
  0.841650074184   0.502508034513   0.219796242398  T T T
  0.764046148746   0.523381355554   0.202435935164  T T T
  0.771982390108   0.549498577993   0.230346151991  T T T
  0.424706873460   0.672679249341   0.230791220340  T T T
  0.508827725824   0.685914494695   0.250340953285  T T T
  0.503160150974   0.618340680676   0.232063328574  T T T
  0.592810601795   0.694288344912   0.214661155979  T T T
  0.512525114804   0.684657893399   0.196798356911  T T T
  0.521010481863   0.746947047179   0.214248264166  T T T
  0.200404806494   0.442297734704   0.972753937746  T T T
  0.545491751329   0.639616018277   0.321446678413  T T T
  0.802979330308   0.707904054598   0.496727489110  T T T
  0.463953907757   0.516745897419   0.799721538904  T T T
  0.785391087758   0.511315405051   0.320172825087  T T T
  0.451461130726   0.712309730068   0.973462584669  T T T
  0.700109144154   0.251424565734   0.801157254643  T T T
  0.548985687164   0.441417594260   0.496637426704  T T T
  0.544243118966   0.451453962896   0.587827322202  T T T
  0.255221978812   0.700034797577   0.603931447135  T T T
  0.789890728850   0.509020829831   0.109502168669  T T T
  0.541243919476   0.703948426178   0.110432664424  T T T
  0.535248048206   0.456330486415   0.694377346045  T T T
  0.231827189695   0.704689283290   0.711917508165  T T T
  0.781044478559   0.511431602720   0.219792550256  T T T
  0.531443901568   0.700258907457   0.213437677473  T T T
  0.272120669459   0.478771774358   0.538279336188  T T T
  0.523004751400   0.668872458894   0.538296072955  T T T
  0.779009830111   0.677230864831   0.061374452833  T T T
  0.527742692985   0.487025518332   0.061014350822  T T T
  0.262496455545   0.483757110791   0.649465330423  T T T
  0.510979476144   0.675853230777   0.649061520015  T T T
  0.761555554356   0.677100429403   0.171456025070  T T T
  0.512963067314   0.481931259056   0.171660785305  T T T
  0.739138871603   0.483600838124   0.760434052102  T T T
  0.498507779510   0.680791744363   0.760209377118  T T T
  0.756724427878   0.674766715627   0.280718144049  T T T
  0.507896916048   0.475033911628   0.280991566380  T T T
